2744687
9 11 112115
11 5 43367
5 12 166758
12 13 95140
13 17 27808
17 3 20583
3 2 14476
2 1 106843
1 7 35813
7 20 258500
20 6 207524
6 14 287666
14 18 103707
18 8 112034
8 10 125856
10 16 21151
16 4 223221
4 15 234495
15 19 105167
19 9 442465
